(declare-fun lit$36$There$32$seems$32$to$32$be$32$mismatch$32$between$32$the$32$purported$32$BulkString$32$length$32$$40$ () Str)
(declare-fun GHC.Base.id () Int)
(declare-fun GHC.Stack.Types.FreezeCallStack () Int)
(declare-fun lq_tmp$36$x$35$$35$3335 () Int)
(declare-fun Data.ByteString.Internal.Type.BS () Int)
(declare-fun lq_tmp$36$x$35$$35$2538 () Int)
(declare-fun GHC.Types.Int64Rep () Int)
(declare-fun Data.Vector.$36$WVector () Int)
(declare-fun lq_tmp$36$x$35$$35$3498 () Int)
(declare-fun lq_anf$36$$35$$35$7205759403792843788$35$$35$dd3u () Int)
(declare-fun lq_anf$36$$35$$35$7205759403792843671$35$$35$dd1B () Int)
(declare-fun lq_tmp$36$x$35$$35$3007 () Int)
(declare-fun GHC.Base.map () Int)
(declare-fun lit$36$BulkString$32$is$32$not$32$supposed$32$to$32$be$32$empty () Str)
(declare-fun autolen () Int)
(declare-fun PyF.Internal.QQ.formatAny () Int)
(declare-fun lq_anf$36$$35$$35$7205759403792843684$35$$35$dd1O () Int)
(declare-fun lq_anf$36$$35$$35$7205759403792843688$35$$35$dd1S () Int)
(declare-fun lq_anf$36$$35$$35$7205759403792843831$35$$35$dd4b () Int)
(declare-fun Data.Attoparsec.Internal.Types.$36$fChunkByteString () Int)
(declare-fun lq_anf$36$$35$$35$7205759403792843839$35$$35$dd4j () Int)
(declare-fun lit$36$$41$$32$and$32$it$39$s$32$actual$32$length () Str)
(declare-fun lit$36$$42$$45$1 () Str)
(declare-fun lq_anf$36$$35$$35$7205759403792843767$35$$35$dd39 () Int)
(declare-fun x_Tuple51 () Int)
(declare-fun lq_anf$36$$35$$35$7205759403792843771$35$$35$dd3d () Int)
(declare-fun PyF.Formatters.Space () Int)
(declare-fun Data.Either.Right () Int)
(declare-fun GHC.Stack.Types.PushCallStack () Int)
(declare-fun lq_anf$36$$35$$35$7205759403792843723$35$$35$dd2r () Int)
(declare-fun lq_anf$36$$35$$35$7205759403792843835$35$$35$dd4f () Int)
(declare-fun lq_tmp$36$x$35$$35$3877 () Int)
(declare-fun lq_tmp$36$x$35$$35$4249 () Int)
(declare-fun GHC.Base.$43$$43$ () Int)
(declare-fun lq_tmp$36$x$35$$35$1996 () Int)
(declare-fun lq_tmp$36$x$35$$35$3213 () Int)
(declare-fun PyF.Internal.QQ.$36$WPaddingK () Int)
(declare-fun GHC.Types.True () Bool)
(declare-fun GHC.Base.. () Int)
(declare-fun lq_anf$36$$35$$35$7205759403792843699$35$$35$dd23 () Int)
(declare-fun Data.Attoparsec.Internal.Types.Done () Int)
(declare-fun RESP.Parser.bulkStringParser () Int)
(declare-fun x_Tuple52 () Int)
(declare-fun Data.Attoparsec.ByteString.Internal.endOfLine () Int)
(declare-fun lq_tmp$36$x$35$$35$3827 () Int)
(declare-fun Data.Primitive.Array.Array () Int)
(declare-fun GHC.Base.pure () Int)
(declare-fun GHC.Base.$42$$62$ () Int)
(declare-fun head () Int)
(declare-fun tail () Int)
(declare-fun GHC.Classes.compare () Int)
(declare-fun lq_anf$36$$35$$35$7205759403792843689$35$$35$dd1T () Int)
(declare-fun fix$36$$36$dFormatAny2_acSZ () Int)
(declare-fun x_Tuple53 () Int)
(declare-fun lq_tmp$36$x$35$$35$2564 () Int)
(declare-fun GHC.Real.quot () Int)
(declare-fun lq_anf$36$$35$$35$7205759403792843776$35$$35$dd3i () Int)
(declare-fun lq_anf$36$$35$$35$7205759403792843669$35$$35$dd1z () Int)
(declare-fun lq_anf$36$$35$$35$7205759403792843685$35$$35$dd1P () Int)
(declare-fun GHC.Real.$36$W$58$$37$ () Int)
(declare-fun RESP.Types.MkArrayResponse () Int)
(declare-fun GHC.Float.sin () Int)
(declare-fun x_Tuple54 () Int)
(declare-fun x_Tuple21 () Int)
(declare-fun lq_tmp$36$x$35$$35$3407 () Int)
(declare-fun lq_anf$36$$35$$35$7205759403792843732$35$$35$dd2A () Int)
(declare-fun PyF.Internal.QQ.$36$fFormatAnytk () Int)
(declare-fun lq_tmp$36$x$35$$35$2981 () Int)
(declare-fun lq_tmp$36$x$35$$35$1302 () Int)
(declare-fun lq_tmp$36$x$35$$35$1926 () Int)
(declare-fun Data.Text.Internal.$36$WText () Int)
(declare-fun Control.Monad.Trans.Except.runExceptT () Int)
(declare-fun lq_anf$36$$35$$35$7205759403792843828$35$$35$dd48 () Int)
(declare-fun Data.ByteString.Lazy.Internal.Chunk () Int)
(declare-fun lq_anf$36$$35$$35$7205759403792843820$35$$35$dd40 () Int)
(declare-fun GHC.Base.$60$$62$ () Int)
(declare-fun Control.Monad.Trans.Except.$36$fMonadFailExceptT () Int)
(declare-fun x_Tuple55 () Int)
(declare-fun Data.String.$36$fIsString$91$$93$ () Int)
(declare-fun lq_anf$36$$35$$35$7205759403792843715$35$$35$dd2j () Int)
(declare-fun lq_anf$36$$35$$35$7205759403792843700$35$$35$dd24 () Int)
(declare-fun GHC.Real.fromRational () Int)
(declare-fun GHC.Real.recip () Int)
(declare-fun lq_anf$36$$35$$35$7205759403792843676$35$$35$dd1G () Int)
(declare-fun GHC.Num.abs () Int)
(declare-fun GHC.Tuple.$40$$44$$44$$44$$44$$41$ () Int)
(declare-fun Data.Attoparsec.Internal.Types.$36$fApplicativeParser () Int)
(declare-fun lq_anf$36$$35$$35$7205759403792843719$35$$35$dd2n () Int)
(declare-fun GHC.IO.Exception.IOError () Int)
(declare-fun GHC.Types.SumRep () Int)
(declare-fun fix$36$$36$dFormatAny_acKN () Int)
(declare-fun lq_anf$36$$35$$35$7205759403792843811$35$$35$dd3R () Int)
(declare-fun lq_tmp$36$x$35$$35$3989 () Int)
(declare-fun lq_anf$36$$35$$35$7205759403792843832$35$$35$dd4c () Int)
(declare-fun lq_tmp$36$x$35$$35$4405 () Int)
(declare-fun GHC.Float.$42$$42$ () Int)
(declare-fun RESP.Types.Array () Int)
(declare-fun x_Tuple22 () Int)
(declare-fun RESP.Types.MkBulkStringResponse () Int)
(declare-fun GHC.Types.Word16Rep () Int)
(declare-fun txt$35$$35$acJk () Int)
(declare-fun lq_tmp$36$x$35$$35$1990 () Int)
(declare-fun lit$36$$13$$10$ () Str)
(declare-fun GHC.Real.$47$ () Int)
(declare-fun GHC.Show.$36$fShowInt () Int)
(declare-fun GHC.Base.$36$ () Int)
(declare-fun fldList () Int)
(declare-fun lq_tmp$36$x$35$$35$4437 () Int)
(declare-fun lq_tmp$36$x$35$$35$3285 () Int)
(declare-fun lq_anf$36$$35$$35$7205759403792843718$35$$35$dd2m () Int)
(declare-fun GHC.Types.I$35$ () Int)
(declare-fun GHC.Types.TupleRep () Int)
(declare-fun GHC.Base.when () Int)
(declare-fun lq_anf$36$$35$$35$7205759403792843827$35$$35$dd47 () Int)
(declare-fun fix$36$$36$dMonad_acQC () Int)
(declare-fun lq_anf$36$$35$$35$7205759403792843823$35$$35$dd43 () Int)
(declare-fun GHC.Types.AddrRep () Int)
(declare-fun GHC.Num.negate () Int)
(declare-fun lq_anf$36$$35$$35$7205759403792843702$35$$35$dd26 () Int)
(declare-fun bslen () Int)
(declare-fun Data.Attoparsec.Internal.Types.Fail () Int)
(declare-fun GHC.Types.Word64Rep () Int)
(declare-fun GHC.Num.Integer.IN () Int)
(declare-fun Control.Monad.Trans.Except.$36$fApplicativeExceptT () Int)
(declare-fun lq_anf$36$$35$$35$7205759403792843733$35$$35$dd2B () Int)
(declare-fun GHC.Enum.C$58$Bounded () Int)
(declare-fun lqdc$35$$35$$36$select$35$$35$GHC.Maybe.Just$35$$35$1 () Int)
(declare-fun GHC.Float.atanh () Int)
(declare-fun fix$36$$36$d$126$_acSW () Int)
(declare-fun Data.Attoparsec.ByteString.Char8.anyChar () Int)
(declare-fun PyF.Internal.QQ.PaddingK () Int)
(declare-fun lq_anf$36$$35$$35$7205759403792843801$35$$35$dd3H () Int)
(declare-fun lq_tmp$36$x$35$$35$3949 () Int)
(declare-fun Control.Monad.Error.Class.throwError () Int)
(declare-fun len$35$$35$acJr () Int)
(declare-fun GHC.Types.$58$ () Int)
(declare-fun lit$36$$36$$45$1 () Str)
(declare-fun Data.Either.Left () Int)
(declare-fun GHC.Float.atan () Int)
(declare-fun fix$36$$36$dFormatAny_acLF () Int)
(declare-fun lq_tmp$36$x$35$$35$1958 () Int)
(declare-fun lq_anf$36$$35$$35$7205759403792843793$35$$35$dd3z () Int)
(declare-fun lq_tmp$36$x$35$$35$2865 () Int)
(declare-fun isLeft () Int)
(declare-fun lq_tmp$36$x$35$$35$2448 () Int)
(declare-fun lq_anf$36$$35$$35$7205759403792843734$35$$35$dd2C () Int)
(declare-fun GHC.Float.log () Int)
(declare-fun Data.Scientific.$36$WScientific () Int)
(declare-fun lq_tmp$36$x$35$$35$2390 () Int)
(declare-fun GHC.Types.Module () Int)
(declare-fun GHC.Tuple.$40$$44$$44$$41$ () Int)
(declare-fun lq_tmp$36$x$35$$35$3245 () Int)
(declare-fun totalityError () Int)
(declare-fun lq_anf$36$$35$$35$7205759403792843753$35$$35$dd2V () Int)
(declare-fun GHC.Num.fromInteger () Int)
(declare-fun GHC.Real.fromIntegral () Int)
(declare-fun GHC.Float.asin () Int)
(declare-fun GHC.Types.FloatRep () Int)
(declare-fun Data.Attoparsec.Internal.Types.$36$fFunctorParser () Int)
(declare-fun GHC.Classes.$61$$61$ () Int)
(declare-fun lq_anf$36$$35$$35$7205759403792843760$35$$35$dd32 () Int)
(declare-fun Data.String.fromString () Int)
(declare-fun lq_anf$36$$35$$35$7205759403792843804$35$$35$dd3K () Int)
(declare-fun Data.Scientific.Scientific () Int)
(declare-fun lit$36$BulkString$32$is$32$supposed$32$to$32$be$32$empty () Str)
(declare-fun lit$36$$58$ () Str)
(declare-fun GHC.Base.$36$fSemigroup$91$$93$ () Int)
(declare-fun Data.ByteString.Internal.Type.$36$WBS () Int)
(declare-fun lq_anf$36$$35$$35$7205759403792843717$35$$35$dd2l () Int)
(declare-fun GHC.Types.TrNameD () Int)
(declare-fun lq_tmp$36$x$35$$35$3917 () Int)
(declare-fun GHC.Types.EQ () Int)
(declare-fun lq_anf$36$$35$$35$7205759403792843783$35$$35$dd3p () Int)
(declare-fun lq_tmp$36$x$35$$35$4365 () Int)
(declare-fun otherResTypes$35$$35$acJS () Int)
(declare-fun lq_tmp$36$x$35$$35$4651 () Int)
(declare-fun Data.ByteString.Lazy.Internal.$36$WChunk () Int)
(declare-fun lit$36$hs$45$redis$45$clone$45$0.1.0.0$45$dlghi72xSz9Rj7lKm8c5D () Str)
(declare-fun Control.Monad.Fail.fail () Int)
(declare-fun lq_tmp$36$x$35$$35$2891 () Int)
(declare-fun GHC.Float.tanh () Int)
(declare-fun lq_anf$36$$35$$35$7205759403792843695$35$$35$dd1Z () Int)
(declare-fun lq_anf$36$$35$$35$7205759403792843759$35$$35$dd31 () Int)
(declare-fun lq_tmp$36$x$35$$35$1792 () Int)
(declare-fun lq_anf$36$$35$$35$7205759403792843796$35$$35$dd3C () Int)
(declare-fun ds_dd0W () Int)
(declare-fun lq_tmp$36$x$35$$35$4315 () Int)
(declare-fun lq_anf$36$$35$$35$7205759403792843722$35$$35$dd2q () Int)
(declare-fun lq_tmp$36$x$35$$35$4575 () Int)
(declare-fun lq_tmp$36$x$35$$35$3057 () Int)
(declare-fun arrLen$35$$35$acJT () Int)
(declare-fun GHC.Types.D$35$ () Int)
(declare-fun lq_anf$36$$35$$35$7205759403792843744$35$$35$dd2M () Int)
(declare-fun GHC.Maybe.Nothing () Int)
(declare-fun lq_anf$36$$35$$35$7205759403792843690$35$$35$dd1U () Int)
(declare-fun x_Tuple32 () Int)
(declare-fun RESP.Types.SimpleString () Int)
(declare-fun GHC.Types.LT () Int)
(declare-fun Data.Tuple.snd () Int)
(declare-fun lq_anf$36$$35$$35$7205759403792843714$35$$35$dd2i () Int)
(declare-fun fix$36$$36$dMonadFail_acRK () Int)
(declare-fun lq_tmp$36$x$35$$35$2941 () Int)
(declare-fun GHC.Types.False () Bool)
(declare-fun GHC.Types.IntRep () Int)
(declare-fun lq_tmp$36$x$35$$35$3595 () Int)
(declare-fun lq_tmp$36$x$35$$35$4723 () Int)
(declare-fun lq_anf$36$$35$$35$7205759403792843675$35$$35$dd1F () Int)
(declare-fun x_Tuple43 () Int)
(declare-fun GHC.Word.W8$35$ () Int)
(declare-fun x_Tuple33 () Int)
(declare-fun GHC.Types.GT () Int)
(declare-fun lq_anf$36$$35$$35$7205759403792843763$35$$35$dd35 () Int)
(declare-fun GHC.Real.mod () Int)
(declare-fun lq_tmp$36$x$35$$35$4601 () Int)
(declare-fun GHC.Classes.not () Int)
(declare-fun PyF.Class.$36$fPyFToStringText () Int)
(declare-fun GHC.Base.$60$$42$ () Int)
(declare-fun Control.Monad.Trans.Except.ExceptT () Int)
(declare-fun lq_anf$36$$35$$35$7205759403792843680$35$$35$dd1K () Int)
(declare-fun lq_anf$36$$35$$35$7205759403792843779$35$$35$dd3l () Int)
(declare-fun lq_anf$36$$35$$35$7205759403792843775$35$$35$dd3h () Int)
(declare-fun Data.Text.Internal.Text () Int)
(declare-fun lq_anf$36$$35$$35$7205759403792843749$35$$35$dd2R () Int)
(declare-fun x_Tuple42 () Int)
(declare-fun Data.ByteString.Internal.Type.$36$fSemigroupByteString () Int)
(declare-fun GHC.Tuple.$40$$41$ () Int)
(declare-fun GHC.Types.Eq$35$ () Int)
(declare-fun GHC.Float.cosh () Int)
(declare-fun lq_anf$36$$35$$35$7205759403792843701$35$$35$dd25 () Int)
(declare-fun liquid_internal_this () Int)
(declare-fun x_Tuple41 () Int)
(declare-fun lq_anf$36$$35$$35$7205759403792843681$35$$35$dd1L () Int)
(declare-fun snd () Int)
(declare-fun x_Tuple31 () Int)
(declare-fun GHC.Types.Word8Rep () Int)
(declare-fun lq_anf$36$$35$$35$7205759403792843772$35$$35$dd3e () Int)
(declare-fun GHC.Err.error () Int)
(declare-fun lq_tmp$36$x$35$$35$2043 () Int)
(declare-fun lq_anf$36$$35$$35$7205759403792843805$35$$35$dd3L () Int)
(declare-fun lq_anf$36$$35$$35$7205759403792843791$35$$35$dd3x () Int)
(declare-fun Data.ByteString.Internal.Type.$36$fIsStringByteString () Int)
(declare-fun GHC.Tuple.$40$$44$$44$$44$$44$$44$$41$ () Int)
(declare-fun GHC.Classes.$36$fOrdInt () Int)
(declare-fun RESP.Types.NullBulkString () Int)
(declare-fun GHC.Float.tan () Int)
(declare-fun GHC.Float.acos () Int)
(declare-fun len () Int)
(declare-fun lit$36$$36$ () Str)
(declare-fun GHC.Classes.$60$ () Int)
(declare-fun lq_tmp$36$x$35$$35$3173 () Int)
(declare-fun Data.Vector.length () Int)
(declare-fun Data.Vector.foldr () Int)
(declare-fun Control.Monad.Trans.Class.lift () Int)
(declare-fun lq_anf$36$$35$$35$7205759403792843757$35$$35$dd2Z () Int)
(declare-fun lq_anf$36$$35$$35$7205759403792843736$35$$35$dd2E () Int)
(declare-fun RESP.Parser.terminatorSeqParser () Int)
(declare-fun GHC.Num.Integer.IP () Int)
(declare-fun int$35$$35$acJC () Int)
(declare-fun stringlen () Int)
(declare-fun Control.Monad.Trans.Except.$36$fMonadTransExceptT () Int)
(declare-fun GHC.Classes.$62$$61$ () Int)
(declare-fun addrLen () Int)
(declare-fun lq_tmp$36$x$35$$35$2686 () Int)
(declare-fun PyF.Formatters.Plus () Int)
(declare-fun PyF.Internal.QQ.$36$WPaddingDefaultK () Int)
(declare-fun cast_as_int () Int)
(declare-fun Data.Attoparsec.Internal.atEnd () Int)
(declare-fun lq_anf$36$$35$$35$7205759403792843731$35$$35$dd2z () Int)
(declare-fun GHC.Maybe.Just () Int)
(declare-fun Data.Vector.Vector () Int)
(declare-fun lq_tmp$36$x$35$$35$4289 () Int)
(declare-fun lq_anf$36$$35$$35$7205759403792843686$35$$35$dd1Q () Int)
(declare-fun Data.ByteString.Lazy.Internal.Empty () Int)
(declare-fun GHC.Types.DoubleRep () Int)
(declare-fun GHC.Types.Word32Rep () Int)
(declare-fun GHC.Tuple.$40$$44$$44$$44$$41$ () Int)
(declare-fun lq_anf$36$$35$$35$7205759403792843764$35$$35$dd36 () Int)
(declare-fun GHC.Classes.$36$fEqInt () Int)
(declare-fun lit$36$$58$$45$ () Str)
(declare-fun GHC.Real.divMod () Int)
(declare-fun lq_tmp$36$x$35$$35$2654 () Int)
(declare-fun Data.Attoparsec.Number.I () Int)
(declare-fun fix$36$$36$dApplicative_acR9 () Int)
(declare-fun GHC.Classes.$62$ () Int)
(declare-fun lq_anf$36$$35$$35$7205759403792843758$35$$35$dd30 () Int)
(declare-fun cast_as () Int)
(declare-fun Data.Text.length () Int)
(declare-fun GHC.Float.pi () Int)
(declare-fun RESP.Types.NullArray () Int)
(declare-fun lq_anf$36$$35$$35$7205759403792843819$35$$35$dd3Z () Int)
(declare-fun lq_anf$36$$35$$35$7205759403792843691$35$$35$dd1V () Int)
(declare-fun GHC.Float.acosh () Int)
(declare-fun Data.Functor.$60$$36$$62$ () Int)
(declare-fun GHC.Classes.min () Int)
(declare-fun lq_tmp$36$x$35$$35$4079 () Int)
(declare-fun lq_anf$36$$35$$35$7205759403792843768$35$$35$dd3a () Int)
(declare-fun lq_tmp$36$x$35$$35$2775 () Int)
(declare-fun GHC.Num.Integer.IS () Int)
(declare-fun GHC.Classes.$38$$38$ () Int)
(declare-fun Data.Text.Internal.pack () Int)
(declare-fun Data.Attoparsec.Number.$36$WD () Int)
(declare-fun PyF.Internal.QQ.$36$fFormatAny2PyFIntegraltk () Int)
(declare-fun GHC.Float.sqrt () Int)
(declare-fun Data.Vector.Mutable.MVector () Int)
(declare-fun GHC.Types.Int32Rep () Int)
(declare-fun Control.Applicative.Combinators.count () Int)
(declare-fun GHC.Float.logBase () Int)
(declare-fun x_Tuple44 () Int)
(declare-fun GHC.Float.sinh () Int)
(declare-fun lq_tmp$36$x$35$$35$3483 () Int)
(declare-fun lq_anf$36$$35$$35$7205759403792843782$35$$35$dd3o () Int)
(declare-fun GHC.Real.quotRem () Int)
(declare-fun lq_tmp$36$x$35$$35$1665 () Int)
(declare-fun lq_anf$36$$35$$35$7205759403792843692$35$$35$dd1W () Int)
(declare-fun Data.Vector.Mutable.$36$WMVector () Int)
(declare-fun lit$36$RESP.Parser () Str)
(declare-fun GHC.Classes.max () Int)
(declare-fun papp3 () Int)
(declare-fun lq_tmp$36$x$35$$35$3645 () Int)
(declare-fun GHC.Classes.C$58$Eq () Int)
(declare-fun x_Tuple61 () Int)
(declare-fun GHC.Real.div () Int)
(declare-fun Data.Attoparsec.Number.D () Int)
(declare-fun GHC.Real.$94$ () Int)
(declare-fun GHC.Types.TrNameS () Int)
(declare-fun fst () Int)
(declare-fun lq_tmp$36$x$35$$35$1611 () Int)
(declare-fun lq_anf$36$$35$$35$7205759403792843792$35$$35$dd3y () Int)
(declare-fun lq_tmp$36$x$35$$35$2049 () Int)
(declare-fun papp2 () Int)
(declare-fun lq_tmp$36$x$35$$35$2614 () Int)
(declare-fun GHC.Num.$45$ () Int)
(declare-fun fix$36$$36$dFormatAny_acL4 () Int)
(declare-fun GHC.Types.Int8Rep () Int)
(declare-fun fix$36$$36$dFormatAny2_acT5 () Int)
(declare-fun lq_anf$36$$35$$35$7205759403792843797$35$$35$dd3D () Int)
(declare-fun Utils.fromEither () Int)
(declare-fun lq_anf$36$$35$$35$7205759403792843745$35$$35$dd2N () Int)
(declare-fun lq_anf$36$$35$$35$7205759403792843730$35$$35$dd2y () Int)
(declare-fun lq_anf$36$$35$$35$7205759403792843752$35$$35$dd2U () Int)
(declare-fun lq_tmp$36$x$35$$35$4691 () Int)
(declare-fun lq_tmp$36$x$35$$35$4039 () Int)
(declare-fun GHC.Types.C$35$ () Int)
(declare-fun Control.Monad.Error.Class.$36$fMonadErroreExceptT () Int)
(declare-fun Data.Attoparsec.Number.$36$WI () Int)
(declare-fun papp1 () Int)
(declare-fun RESP.Types.RESPInteger () Int)
(declare-fun Data.Tuple.fst () Int)
(declare-fun PyF.Class.$36$fPyFToStringByteString0 () Int)
(declare-fun lq_tmp$36$x$35$$35$3711 () Int)
(declare-fun x_Tuple63 () Int)
(declare-fun GHC.Types.WordRep () Int)
(declare-fun GHC.Float.asinh () Int)
(declare-fun GHC.Types.VecRep () Int)
(declare-fun lq_tmp$36$x$35$$35$2498 () Int)
(declare-fun lq_tmp$36$x$35$$35$2124 () Int)
(declare-fun lq_anf$36$$35$$35$7205759403792843683$35$$35$dd1N () Int)
(declare-fun PyF.Internal.QQ.PaddingDefaultK () Int)
(declare-fun GHC.Classes.$47$$61$ () Int)
(declare-fun lq_tmp$36$x$35$$35$1842 () Int)
(declare-fun GHC.Float.cos () Int)
(declare-fun x_Tuple62 () Int)
(declare-fun GHC.Float.exp () Int)
(declare-fun lq_tmp$36$x$35$$35$3123 () Int)
(declare-fun lq_tmp$36$x$35$$35$4535 () Int)
(declare-fun GHC.Show.C$58$Show () Int)
(declare-fun Data.Attoparsec.Internal.Types.$36$fMonadFailParser () Int)
(declare-fun lq_tmp$36$x$35$$35$3761 () Int)
(declare-fun lq_tmp$36$x$35$$35$3097 () Int)
(declare-fun lq_anf$36$$35$$35$7205759403792843716$35$$35$dd2k () Int)
(declare-fun lq_anf$36$$35$$35$7205759403792843840$35$$35$dd4k () Int)
(declare-fun lq_anf$36$$35$$35$7205759403792843812$35$$35$dd3S () Int)
(declare-fun lq_anf$36$$35$$35$7205759403792843673$35$$35$dd1D () Int)
(declare-fun lq_tmp$36$x$35$$35$3685 () Int)
(declare-fun papp7 () Int)
(declare-fun GHC.Num.$36$fNumInt () Int)
(declare-fun GHC.Types.$91$$93$ () Int)
(declare-fun lq_tmp$36$x$35$$35$3375 () Int)
(declare-fun RESP.Types.BulkString () Int)
(declare-fun GHC.Real.toInteger () Int)
(declare-fun x_Tuple65 () Int)
(declare-fun lit$36$$43$ () Str)
(declare-fun lq_tmp$36$x$35$$35$4199 () Int)
(declare-fun GHC.Types.Int16Rep () Int)
(declare-fun lq_anf$36$$35$$35$7205759403792843800$35$$35$dd3G () Int)
(declare-fun GHC.Real.$58$$37$ () Int)
(declare-fun GHC.Stack.Types.EmptyCallStack () Int)
(declare-fun fix$36$$36$dMonadError_acRg () Int)
(declare-fun lit$36$Invalid$32$RESP$32$BulkString$32$string () Str)
(declare-fun GHC.Real.rem () Int)
(declare-fun papp6 () Int)
(declare-fun Control.Monad.Trans.Except.$36$fMonadExceptT () Int)
(declare-fun lq_tmp$36$x$35$$35$4111 () Int)
(declare-fun Data.Attoparsec.ByteString.Char8.decimal () Int)
(declare-fun ds_dd16 () Int)
(declare-fun lq_anf$36$$35$$35$7205759403792843682$35$$35$dd1M () Int)
(declare-fun txt$35$$35$acJq () Int)
(declare-fun lq_anf$36$$35$$35$7205759403792843824$35$$35$dd44 () Int)
(declare-fun x_Tuple64 () Int)
(declare-fun Data.Attoparsec.ByteString.Char8.signed () Int)
(declare-fun lq_anf$36$$35$$35$7205759403792843808$35$$35$dd3O () Int)
(declare-fun lit$36$$42$ () Str)
(declare-fun GHC.Classes.C$58$IP () Int)
(declare-fun PyF.Internal.QQ.$36$fFormatAny2PyFStringtAlignAll () Int)
(declare-fun lq_tmp$36$x$35$$35$3801 () Int)
(declare-fun Helpers.withCustomError () Int)
(declare-fun lq_anf$36$$35$$35$7205759403792843672$35$$35$dd1C () Int)
(declare-fun GHC.CString.unpackCString$35$ () Int)
(declare-fun papp5 () Int)
(declare-fun fix$36$$36$dIsString_acSc () Int)
(declare-fun GHC.Real.$36$fIntegralInt () Int)
(declare-fun GHC.Num.$42$ () Int)
(declare-fun lq_anf$36$$35$$35$7205759403792843735$35$$35$dd2D () Int)
(declare-fun ds_dd15 () Int)
(declare-fun fix$36$$36$dFormatAny2_acT2 () Int)
(declare-fun lq_anf$36$$35$$35$7205759403792843703$35$$35$dd27 () Int)
(declare-fun lq_anf$36$$35$$35$7205759403792843674$35$$35$dd1E () Int)
(declare-fun lq_tmp$36$x$35$$35$2002 () Int)
(declare-fun GHC.Classes.$60$$61$ () Int)
(declare-fun GHC.Classes.$124$$124$ () Int)
(declare-fun GHC.Tuple.$40$$44$$41$ () Int)
(declare-fun GHC.Base.$62$$62$ () Int)
(declare-fun PyF.Formatters.Minus () Int)
(declare-fun lq_tmp$36$x$35$$35$4485 () Int)
(declare-fun papp4 () Int)
(declare-fun Data.Attoparsec.Internal.Types.$36$fMonadParser () Int)
(declare-fun Data.Attoparsec.ByteString.Char8.char () Int)
(declare-fun lq_anf$36$$35$$35$7205759403792843836$35$$35$dd4g () Int)
(declare-fun lq_tmp$36$x$35$$35$2825 () Int)
(declare-fun GHC.Base.$62$$62$$61$ () Int)
(declare-fun GHC.Num.$43$ () Int)
(declare-fun RESP.Parser.serializeRESPDataType () Int)
(declare-fun lq_anf$36$$35$$35$7205759403792843748$35$$35$dd2Q () Int)
(declare-fun x_Tuple66 () Int)
(declare-fun GHC.Types.BoxedRep () Int)
(declare-fun lq_tmp$36$x$35$$35$1882 () Int)
(declare-fun apply$35$$35$26 (Int (_ BitVec 32)) Real)
(declare-fun apply$35$$35$32 (Int (_ BitVec 64)) Real)
(declare-fun apply$35$$35$17 (Int Real) (_ BitVec 64))
(declare-fun apply$35$$35$16 (Int Real) (_ BitVec 32))
(declare-fun apply$35$$35$24 (Int (_ BitVec 32)) Int)
(declare-fun apply$35$$35$5 (Int Int) (_ BitVec 64))
(declare-fun apply$35$$35$30 (Int (_ BitVec 64)) Int)
(declare-fun apply$35$$35$4 (Int Int) (_ BitVec 32))
(declare-fun apply$35$$35$28 (Int (_ BitVec 32)) (_ BitVec 32))
(declare-fun apply$35$$35$35 (Int (_ BitVec 64)) (_ BitVec 64))
(declare-fun apply$35$$35$29 (Int (_ BitVec 32)) (_ BitVec 64))
(declare-fun apply$35$$35$7 (Int Bool) Bool)
(declare-fun apply$35$$35$34 (Int (_ BitVec 64)) (_ BitVec 32))
(declare-fun apply$35$$35$0 (Int Int) Int)
(declare-fun apply$35$$35$21 (Int Str) Str)
(declare-fun apply$35$$35$14 (Int Real) Real)
(declare-fun apply$35$$35$9 (Int Bool) Str)
(declare-fun apply$35$$35$2 (Int Int) Real)
(declare-fun apply$35$$35$19 (Int Str) Bool)
(declare-fun apply$35$$35$12 (Int Real) Int)
(declare-fun apply$35$$35$27 (Int (_ BitVec 32)) Str)
(declare-fun apply$35$$35$22 (Int Str) (_ BitVec 32))
(declare-fun apply$35$$35$33 (Int (_ BitVec 64)) Str)
(declare-fun apply$35$$35$23 (Int Str) (_ BitVec 64))
(declare-fun apply$35$$35$25 (Int (_ BitVec 32)) Bool)
(declare-fun apply$35$$35$10 (Int Bool) (_ BitVec 32))
(declare-fun apply$35$$35$31 (Int (_ BitVec 64)) Bool)
(declare-fun apply$35$$35$11 (Int Bool) (_ BitVec 64))
(declare-fun apply$35$$35$15 (Int Real) Str)
(declare-fun apply$35$$35$6 (Int Bool) Int)
(declare-fun apply$35$$35$1 (Int Int) Bool)
(declare-fun apply$35$$35$20 (Int Str) Real)
(declare-fun apply$35$$35$8 (Int Bool) Real)
(declare-fun apply$35$$35$3 (Int Int) Str)
(declare-fun apply$35$$35$18 (Int Str) Int)
(declare-fun apply$35$$35$13 (Int Real) Bool)
(declare-fun coerce$35$$35$26 ((_ BitVec 32)) Real)
(declare-fun coerce$35$$35$32 ((_ BitVec 64)) Real)
(declare-fun coerce$35$$35$17 (Real) (_ BitVec 64))
(declare-fun coerce$35$$35$16 (Real) (_ BitVec 32))
(declare-fun coerce$35$$35$24 ((_ BitVec 32)) Int)
(declare-fun coerce$35$$35$5 (Int) (_ BitVec 64))
(declare-fun coerce$35$$35$30 ((_ BitVec 64)) Int)
(declare-fun coerce$35$$35$4 (Int) (_ BitVec 32))
(declare-fun coerce$35$$35$28 ((_ BitVec 32)) (_ BitVec 32))
(declare-fun coerce$35$$35$35 ((_ BitVec 64)) (_ BitVec 64))
(declare-fun coerce$35$$35$29 ((_ BitVec 32)) (_ BitVec 64))
(declare-fun coerce$35$$35$7 (Bool) Bool)
(declare-fun coerce$35$$35$34 ((_ BitVec 64)) (_ BitVec 32))
(declare-fun coerce$35$$35$0 (Int) Int)
(declare-fun coerce$35$$35$21 (Str) Str)
(declare-fun coerce$35$$35$14 (Real) Real)
(declare-fun coerce$35$$35$9 (Bool) Str)
(declare-fun coerce$35$$35$2 (Int) Real)
(declare-fun coerce$35$$35$19 (Str) Bool)
(declare-fun coerce$35$$35$12 (Real) Int)
(declare-fun coerce$35$$35$27 ((_ BitVec 32)) Str)
(declare-fun coerce$35$$35$22 (Str) (_ BitVec 32))
(declare-fun coerce$35$$35$33 ((_ BitVec 64)) Str)
(declare-fun coerce$35$$35$23 (Str) (_ BitVec 64))
(declare-fun coerce$35$$35$25 ((_ BitVec 32)) Bool)
(declare-fun coerce$35$$35$10 (Bool) (_ BitVec 32))
(declare-fun coerce$35$$35$31 ((_ BitVec 64)) Bool)
(declare-fun coerce$35$$35$11 (Bool) (_ BitVec 64))
(declare-fun coerce$35$$35$15 (Real) Str)
(declare-fun coerce$35$$35$6 (Bool) Int)
(declare-fun coerce$35$$35$1 (Int) Bool)
(declare-fun coerce$35$$35$20 (Str) Real)
(declare-fun coerce$35$$35$8 (Bool) Real)
(declare-fun coerce$35$$35$3 (Int) Str)
(declare-fun coerce$35$$35$18 (Str) Int)
(declare-fun coerce$35$$35$13 (Real) Bool)
(declare-fun smt_lambda$35$$35$26 ((_ BitVec 32) Real) Int)
(declare-fun smt_lambda$35$$35$32 ((_ BitVec 64) Real) Int)
(declare-fun smt_lambda$35$$35$17 (Real (_ BitVec 64)) Int)
(declare-fun smt_lambda$35$$35$16 (Real (_ BitVec 32)) Int)
(declare-fun smt_lambda$35$$35$24 ((_ BitVec 32) Int) Int)
(declare-fun smt_lambda$35$$35$5 (Int (_ BitVec 64)) Int)
(declare-fun smt_lambda$35$$35$30 ((_ BitVec 64) Int) Int)
(declare-fun smt_lambda$35$$35$4 (Int (_ BitVec 32)) Int)
(declare-fun smt_lambda$35$$35$28 ((_ BitVec 32) (_ BitVec 32)) Int)
(declare-fun smt_lambda$35$$35$35 ((_ BitVec 64) (_ BitVec 64)) Int)
(declare-fun smt_lambda$35$$35$29 ((_ BitVec 32) (_ BitVec 64)) Int)
(declare-fun smt_lambda$35$$35$7 (Bool Bool) Int)
(declare-fun smt_lambda$35$$35$34 ((_ BitVec 64) (_ BitVec 32)) Int)
(declare-fun smt_lambda$35$$35$0 (Int Int) Int)
(declare-fun smt_lambda$35$$35$21 (Str Str) Int)
(declare-fun smt_lambda$35$$35$14 (Real Real) Int)
(declare-fun smt_lambda$35$$35$9 (Bool Str) Int)
(declare-fun smt_lambda$35$$35$2 (Int Real) Int)
(declare-fun smt_lambda$35$$35$19 (Str Bool) Int)
(declare-fun smt_lambda$35$$35$12 (Real Int) Int)
(declare-fun smt_lambda$35$$35$27 ((_ BitVec 32) Str) Int)
(declare-fun smt_lambda$35$$35$22 (Str (_ BitVec 32)) Int)
(declare-fun smt_lambda$35$$35$33 ((_ BitVec 64) Str) Int)
(declare-fun smt_lambda$35$$35$23 (Str (_ BitVec 64)) Int)
(declare-fun smt_lambda$35$$35$25 ((_ BitVec 32) Bool) Int)
(declare-fun smt_lambda$35$$35$10 (Bool (_ BitVec 32)) Int)
(declare-fun smt_lambda$35$$35$31 ((_ BitVec 64) Bool) Int)
(declare-fun smt_lambda$35$$35$11 (Bool (_ BitVec 64)) Int)
(declare-fun smt_lambda$35$$35$15 (Real Str) Int)
(declare-fun smt_lambda$35$$35$6 (Bool Int) Int)
(declare-fun smt_lambda$35$$35$1 (Int Bool) Int)
(declare-fun smt_lambda$35$$35$20 (Str Real) Int)
(declare-fun smt_lambda$35$$35$8 (Bool Real) Int)
(declare-fun smt_lambda$35$$35$3 (Int Str) Int)
(declare-fun smt_lambda$35$$35$18 (Str Int) Int)
(declare-fun smt_lambda$35$$35$13 (Real Bool) Int)
(declare-fun lam_arg$35$$35$1$35$$35$24 () (_ BitVec 32))
(declare-fun lam_arg$35$$35$2$35$$35$24 () (_ BitVec 32))
(declare-fun lam_arg$35$$35$3$35$$35$24 () (_ BitVec 32))
(declare-fun lam_arg$35$$35$4$35$$35$24 () (_ BitVec 32))
(declare-fun lam_arg$35$$35$5$35$$35$24 () (_ BitVec 32))
(declare-fun lam_arg$35$$35$6$35$$35$24 () (_ BitVec 32))
(declare-fun lam_arg$35$$35$7$35$$35$24 () (_ BitVec 32))
(declare-fun lam_arg$35$$35$1$35$$35$30 () (_ BitVec 64))
(declare-fun lam_arg$35$$35$2$35$$35$30 () (_ BitVec 64))
(declare-fun lam_arg$35$$35$3$35$$35$30 () (_ BitVec 64))
(declare-fun lam_arg$35$$35$4$35$$35$30 () (_ BitVec 64))
(declare-fun lam_arg$35$$35$5$35$$35$30 () (_ BitVec 64))
(declare-fun lam_arg$35$$35$6$35$$35$30 () (_ BitVec 64))
(declare-fun lam_arg$35$$35$7$35$$35$30 () (_ BitVec 64))
(declare-fun lam_arg$35$$35$1$35$$35$0 () Int)
(declare-fun lam_arg$35$$35$2$35$$35$0 () Int)
(declare-fun lam_arg$35$$35$3$35$$35$0 () Int)
(declare-fun lam_arg$35$$35$4$35$$35$0 () Int)
(declare-fun lam_arg$35$$35$5$35$$35$0 () Int)
(declare-fun lam_arg$35$$35$6$35$$35$0 () Int)
(declare-fun lam_arg$35$$35$7$35$$35$0 () Int)
(declare-fun lam_arg$35$$35$1$35$$35$12 () Real)
(declare-fun lam_arg$35$$35$2$35$$35$12 () Real)
(declare-fun lam_arg$35$$35$3$35$$35$12 () Real)
(declare-fun lam_arg$35$$35$4$35$$35$12 () Real)
(declare-fun lam_arg$35$$35$5$35$$35$12 () Real)
(declare-fun lam_arg$35$$35$6$35$$35$12 () Real)
(declare-fun lam_arg$35$$35$7$35$$35$12 () Real)
(declare-fun lam_arg$35$$35$1$35$$35$6 () Bool)
(declare-fun lam_arg$35$$35$2$35$$35$6 () Bool)
(declare-fun lam_arg$35$$35$3$35$$35$6 () Bool)
(declare-fun lam_arg$35$$35$4$35$$35$6 () Bool)
(declare-fun lam_arg$35$$35$5$35$$35$6 () Bool)
(declare-fun lam_arg$35$$35$6$35$$35$6 () Bool)
(declare-fun lam_arg$35$$35$7$35$$35$6 () Bool)
(declare-fun lam_arg$35$$35$1$35$$35$18 () Str)
(declare-fun lam_arg$35$$35$2$35$$35$18 () Str)
(declare-fun lam_arg$35$$35$3$35$$35$18 () Str)
(declare-fun lam_arg$35$$35$4$35$$35$18 () Str)
(declare-fun lam_arg$35$$35$5$35$$35$18 () Str)
(declare-fun lam_arg$35$$35$6$35$$35$18 () Str)
(declare-fun lam_arg$35$$35$7$35$$35$18 () Str)
(assert (distinct PyF.Formatters.Minus PyF.Formatters.Plus PyF.Formatters.Space))
(assert (distinct GHC.Types.Int16Rep GHC.Types.WordRep GHC.Types.Int8Rep GHC.Types.Int32Rep GHC.Types.Word32Rep GHC.Types.DoubleRep GHC.Types.Word8Rep GHC.Types.IntRep GHC.Types.FloatRep GHC.Types.Word64Rep GHC.Types.AddrRep GHC.Types.Word16Rep GHC.Types.Int64Rep))

(assert (distinct lit$36$$42$ lit$36$Invalid$32$RESP$32$BulkString$32$string lit$36$$43$ lit$36$RESP.Parser lit$36$$58$$45$ lit$36$$36$ lit$36$hs$45$redis$45$clone$45$0.1.0.0$45$dlghi72xSz9Rj7lKm8c5D lit$36$$58$ lit$36$BulkString$32$is$32$supposed$32$to$32$be$32$empty lit$36$$36$$45$1 lit$36$$13$$10$ lit$36$$42$$45$1 lit$36$$41$$32$and$32$it$39$s$32$actual$32$length lit$36$BulkString$32$is$32$not$32$supposed$32$to$32$be$32$empty lit$36$There$32$seems$32$to$32$be$32$mismatch$32$between$32$the$32$purported$32$BulkString$32$length$32$$40$))


(assert (distinct GHC.Types.False GHC.Types.True))


(assert (distinct GHC.Types.GT GHC.Types.LT GHC.Types.EQ))

(assert (= (strLen lit$36$There$32$seems$32$to$32$be$32$mismatch$32$between$32$the$32$purported$32$BulkString$32$length$32$$40$) 68))
(assert (= (strLen lit$36$BulkString$32$is$32$not$32$supposed$32$to$32$be$32$empty) 38))
(assert (= (strLen lit$36$$41$$32$and$32$it$39$s$32$actual$32$length) 24))
(assert (= (strLen lit$36$$42$$45$1) 3))
(assert (= (strLen lit$36$$13$$10$) 2))
(assert (= (strLen lit$36$$36$$45$1) 3))
(assert (= (strLen lit$36$BulkString$32$is$32$supposed$32$to$32$be$32$empty) 34))
(assert (= (strLen lit$36$$58$) 1))
(assert (= (strLen lit$36$hs$45$redis$45$clone$45$0.1.0.0$45$dlghi72xSz9Rj7lKm8c5D) 44))
(assert (= (strLen lit$36$$36$) 1))
(assert (= (strLen lit$36$$58$$45$) 2))
(assert (= (strLen lit$36$RESP.Parser) 11))
(assert (= (strLen lit$36$$43$) 1))
(assert (= (strLen lit$36$Invalid$32$RESP$32$BulkString$32$string) 30))
(assert (= (strLen lit$36$$42$) 1))
(push 1)
(push 1)
(pop 1)
(pop 1)
